120
150
58
48
56
44
48
59
50
46
48
41
46
56
54
48
48
54
49
47
57
47
52
57
60
48
51
41
46
59
48
40
58
48
54
54
51
54
45
48
55
60
60
55
54
50
41
60
59
40
42
49
41
48
58
59
45
44
42
56
48
52
44
49
49
49
60
54
51
51
41
52
54
50
50
51
51
51
49
45
51
47
55
59
48
48
56
54
57
47
52
48
50
46
40
58
51
58
51
51
41
59
54
49
40
55
41
48
51
50
47
43
44
46
49
46
48
46
49
60
60
53
